Si3 O6
1.0
   4.9165787800000000    0.0002105200000000   -0.0000224500000000
  -2.4581068999999989    4.2579390400000001    0.0000551300000000
  -0.0000045100000000    0.0000371200000000    5.4316252499999997
Si O
3 6
direct
   0.0000014400000000    0.4687988500000000    0.3333480000000000 Si
   0.5312095400000000    0.5312023900000000    0.0000010700000000 Si
   0.4687953200000000    0.0000033100000000    0.6666582999999990 Si
   0.1445311000000000    0.7314360600000001    0.5478227500000000 O
   0.5869139800000001    0.8554735900000000    0.8811414900000000 O
   0.2685435700000000    0.4131193600000000    0.2144374600000000 O
   0.4131071800000000    0.2685540900000000    0.7855498500000000 O
   0.8554628100000000    0.5868857000000000    0.1188479700000000 O
   0.7314340600000000    0.1445246400000000    0.4521931100000000 O
