Si3 O6
1.0
   4.9134000000000002    0.0000000000000000    0.0000000000000003
  -2.4566999999999997    4.2551292189544609    0.0000000000000003
   0.0000000000000000    0.0000000000000000    5.4051999999999998
Si O
3 6
direct
   0.4697000000000000    0.0000000000000000    0.0000000000000000 Si
   0.0000000000000000    0.4697000000000000    0.6667000000000000 Si
   0.5303000000000000    0.5303000000000000    0.3333000000000000 Si
   0.4133000000000000    0.2672000000000000    0.1188000000000000 O
   0.2672000000000000    0.4133000000000000    0.5479000000000001 O
   0.7328000000000000    0.8545000000000000    0.7855000000000000 O
   0.8545000000000000    0.7328000000000000    0.4521000000000000 O
   0.1455000000000000    0.5867000000000000    0.2145000000000000 O
   0.5867000000000000    0.1455000000000000    0.8812000000000000 O
